Nb of jobs, Nb of Machines, Time seed, Machine seed, Upper bound, Lower bound
3,10,-1,-1,-1,-1
Times
20,40,95,76,46,85,40,49,15,74
1,49,31,46,39,97,4,16,44,61
97,39,58,33,9,7,56,87,78,79
Machines
2,6,8,7,10,4,3,1,5,9
6,8,5,2,4,1,7,3,10,9
7,5,1,2,9,8,6,3,10,4
